p cnf 12 26
-12 -9 1 0
-12 6 2 0
-12 -6 1 0
12 -5 -2 0
12 4 -2 0
11 9 -4 0
-11 9 -1 0
11 -8 5 0
-11 8 -2 0
-11 5 3 0
-11 -3 1 0
-10 -8 5 0
10 7 -1 0
-10 -6 -4 0
-10 6 -4 0
-10 -6 4 0
-10 -6 2 0
-10 6 1 0
-9 -8 -6 0
-9 5 4 0
8 7 -6 0
-8 -6 -5 0
8 -6 1 0
7 -5 4 0
6 3 2 0
-4 -3 1 0
